% File represents an instance of a Composite Structure problem to be solved by a CP framework
% Created on 2025-03-26 10:41:23.641
T = 54;
n = 16;
m = 24;
edges = [(2, 1),
(5, 6),
(9, 10),
(13, 14),
(3, 2),
(7, 6),
(11, 10),
(15, 14),
(3, 4),
(7, 8),
(11, 12),
(15, 16),
(5, 1),
(9, 5),
(13, 9),
(2, 6),
(10, 6),
(14, 10),
(3, 7),
(11, 7),
(15, 11),
(4, 8),
(12, 8),
(16, 12)];
counts = [|4, 12, 4, 18,
|4, 12, 4, 20,
|4, 16, 4, 20,
|4, 14, 4, 18,
|4, 18, 4, 18,
|4, 12, 4, 18,
|4, 14, 4, 20,
|2, 14, 2, 18,
|4, 24, 4, 18,
|4, 18, 4, 18,
|4, 18, 4, 20,
|2, 18, 2, 20,
|4, 26, 4, 20,
|4, 20, 4, 20,
|4, 20, 4, 22,
|2, 20, 2, 22|];
